language ESSENCE' 1.0

letting C_FunctionND be
        [[0, 0, 0, 0, 0, 0, 0, 0, 0, 0, 0, 0, 0, 0, 0, 0, 0, 0, 0, 0, 0; int(0..20)],
         [1, 0, 0, 0, 0, 0, 0, 0, 0, 0, 0, 0, 0, 0, 0, 0, 0, 0, 0, 0, 0; int(0..20)],
         [1, 0, 0, 0, 0, 0, 0, 0, 0, 0, 0, 0, 0, 0, 0, 0, 0, 0, 0, 0, 0; int(0..20)],
         [1, 0, 0, 0, 0, 0, 0, 0, 0, 0, 0, 0, 0, 0, 0, 0, 0, 0, 0, 0, 0; int(0..20)],
         [1, 0, 0, 0, 0, 0, 0, 0, 0, 0, 0, 0, 0, 0, 0, 0, 0, 0, 0, 0, 0; int(0..20)],
         [1, 0, 0, 0, 0, 0, 0, 0, 0, 0, 0, 0, 0, 0, 0, 0, 0, 0, 0, 0, 0; int(0..20)],
         [1, 0, 0, 0, 0, 0, 0, 0, 0, 0, 0, 0, 0, 0, 0, 0, 0, 0, 0, 0, 0; int(0..20)],
         [1, 0, 0, 0, 0, 0, 0, 0, 0, 0, 0, 0, 0, 0, 0, 0, 0, 0, 0, 0, 0; int(0..20)],
         [1, 0, 0, 0, 0, 0, 0, 0, 0, 0, 0, 0, 0, 0, 0, 0, 0, 0, 0, 0, 0; int(0..20)],
         [0, 1, 1, 0, 0, 0, 0, 0, 0, 0, 0, 0, 0, 0, 0, 0, 0, 0, 0, 0, 0; int(0..20)],
         [0, 1, 0, 1, 0, 0, 0, 0, 0, 0, 0, 0, 0, 0, 0, 0, 0, 0, 0, 0, 0; int(0..20)],
         [0, 1, 0, 0, 1, 0, 1, 1, 0, 0, 0, 0, 0, 0, 0, 0, 0, 0, 0, 0, 0; int(0..20)],
         [0, 1, 0, 0, 0, 1, 0, 0, 0, 0, 0, 0, 0, 0, 0, 0, 0, 0, 0, 0, 0; int(0..20)],
         [0, 1, 0, 0, 0, 0, 0, 0, 1, 0, 0, 0, 0, 0, 0, 0, 0, 0, 0, 0, 0; int(0..20)],
         [0, 0, 1, 1, 0, 0, 1, 0, 0, 0, 0, 0, 0, 0, 0, 0, 0, 0, 0, 0, 0; int(0..20)],
         [0, 0, 1, 0, 1, 1, 0, 0, 0, 0, 0, 0, 0, 0, 0, 0, 0, 0, 0, 0, 0; int(0..20)],
         [0, 0, 1, 0, 0, 0, 0, 1, 1, 0, 0, 0, 0, 0, 0, 0, 0, 0, 0, 0, 0; int(0..20)],
         [0, 0, 0, 1, 1, 0, 0, 0, 1, 0, 0, 0, 0, 0, 0, 0, 0, 0, 0, 0, 0; int(0..20)],
         [0, 0, 0, 1, 0, 1, 0, 1, 0, 0, 0, 0, 0, 0, 0, 0, 0, 0, 0, 0, 0; int(0..20)],
         [0, 0, 0, 0, 0, 1, 1, 0, 1, 0, 0, 0, 0, 0, 0, 0, 0, 0, 0, 0, 0; int(0..20)],
         [0, 0, 0, 0, 0, 0, 0, 0, 0, 1, 1, 1, 1, 1, 1, 1, 1, 1, 1, 1, 0; int(0..20)];
             int(0..20)]
$ Visualisation for C_FunctionND
$ 0 0 0 0 0 0 0 0 0 0 0 0 0 0 0 0 0 0 0 0 0
$ 1 0 0 0 0 0 0 0 0 0 0 0 0 0 0 0 0 0 0 0 0
$ 1 0 0 0 0 0 0 0 0 0 0 0 0 0 0 0 0 0 0 0 0
$ 1 0 0 0 0 0 0 0 0 0 0 0 0 0 0 0 0 0 0 0 0
$ 1 0 0 0 0 0 0 0 0 0 0 0 0 0 0 0 0 0 0 0 0
$ 1 0 0 0 0 0 0 0 0 0 0 0 0 0 0 0 0 0 0 0 0
$ 1 0 0 0 0 0 0 0 0 0 0 0 0 0 0 0 0 0 0 0 0
$ 1 0 0 0 0 0 0 0 0 0 0 0 0 0 0 0 0 0 0 0 0
$ 1 0 0 0 0 0 0 0 0 0 0 0 0 0 0 0 0 0 0 0 0
$ 0 1 1 0 0 0 0 0 0 0 0 0 0 0 0 0 0 0 0 0 0
$ 0 1 0 1 0 0 0 0 0 0 0 0 0 0 0 0 0 0 0 0 0
$ 0 1 0 0 1 0 1 1 0 0 0 0 0 0 0 0 0 0 0 0 0
$ 0 1 0 0 0 1 0 0 0 0 0 0 0 0 0 0 0 0 0 0 0
$ 0 1 0 0 0 0 0 0 1 0 0 0 0 0 0 0 0 0 0 0 0
$ 0 0 1 1 0 0 1 0 0 0 0 0 0 0 0 0 0 0 0 0 0
$ 0 0 1 0 1 1 0 0 0 0 0 0 0 0 0 0 0 0 0 0 0
$ 0 0 1 0 0 0 0 1 1 0 0 0 0 0 0 0 0 0 0 0 0
$ 0 0 0 1 1 0 0 0 1 0 0 0 0 0 0 0 0 0 0 0 0
$ 0 0 0 1 0 1 0 1 0 0 0 0 0 0 0 0 0 0 0 0 0
$ 0 0 0 0 0 1 1 0 1 0 0 0 0 0 0 0 0 0 0 0 0
$ 0 0 0 0 0 0 0 0 0 1 1 1 1 1 1 1 1 1 1 1 0

letting J_FunctionND be
        [[0, 1, 2, 3, 4, 5, 6, 7, 8, 9, 10, 11, 12, 13, 14, 15, 16, 17, 18, 19, 20; int(0..20)],
         [1, 1, 9, 10, 11, 12, 11, 11, 13, 9, 10, 11, 12, 13, 20, 20, 20, 20, 20, 20, 20; int(0..20)],
         [2, 9, 2, 14, 15, 15, 14, 16, 16, 9, 20, 20, 20, 20, 14, 15, 16, 20, 20, 20, 20; int(0..20)],
         [3, 10, 14, 3, 17, 18, 14, 18, 17, 20, 10, 20, 20, 20, 14, 20, 20, 17, 18, 20, 20; int(0..20)],
         [4, 11, 15, 17, 4, 15, 11, 11, 17, 20, 20, 11, 20, 20, 20, 15, 20, 17, 20, 20, 20; int(0..20)],
         [5, 12, 15, 18, 15, 5, 19, 18, 19, 20, 20, 20, 12, 20, 20, 15, 20, 20, 18, 19, 20; int(0..20)],
         [6, 11, 14, 14, 11, 19, 6, 11, 19, 20, 20, 11, 20, 20, 14, 20, 20, 20, 20, 19, 20; int(0..20)],
         [7, 11, 16, 18, 11, 18, 11, 7, 16, 20, 20, 11, 20, 20, 20, 20, 16, 20, 18, 20, 20; int(0..20)],
         [8, 13, 16, 17, 17, 19, 19, 16, 8, 20, 20, 20, 20, 13, 20, 20, 16, 17, 20, 19, 20; int(0..20)],
         [9, 9, 9, 20, 20, 20, 20, 20, 20, 9, 20, 20, 20, 20, 20, 20, 20, 20, 20, 20, 20; int(0..20)],
         [10, 10, 20, 10, 20, 20, 20, 20, 20, 20, 10, 20, 20, 20, 20, 20, 20, 20, 20, 20, 20; int(0..20)],
         [11, 11, 20, 20, 11, 20, 11, 11, 20, 20, 20, 11, 20, 20, 20, 20, 20, 20, 20, 20, 20; int(0..20)],
         [12, 12, 20, 20, 20, 12, 20, 20, 20, 20, 20, 20, 12, 20, 20, 20, 20, 20, 20, 20, 20; int(0..20)],
         [13, 13, 20, 20, 20, 20, 20, 20, 13, 20, 20, 20, 20, 13, 20, 20, 20, 20, 20, 20, 20; int(0..20)],
         [14, 20, 14, 14, 20, 20, 14, 20, 20, 20, 20, 20, 20, 20, 14, 20, 20, 20, 20, 20, 20; int(0..20)],
         [15, 20, 15, 20, 15, 15, 20, 20, 20, 20, 20, 20, 20, 20, 20, 15, 20, 20, 20, 20, 20; int(0..20)],
         [16, 20, 16, 20, 20, 20, 20, 16, 16, 20, 20, 20, 20, 20, 20, 20, 16, 20, 20, 20, 20; int(0..20)],
         [17, 20, 20, 17, 17, 20, 20, 20, 17, 20, 20, 20, 20, 20, 20, 20, 20, 17, 20, 20, 20; int(0..20)],
         [18, 20, 20, 18, 20, 18, 20, 18, 20, 20, 20, 20, 20, 20, 20, 20, 20, 20, 18, 20, 20; int(0..20)],
         [19, 20, 20, 20, 20, 19, 19, 20, 19, 20, 20, 20, 20, 20, 20, 20, 20, 20, 20, 19, 20; int(0..20)],
         [20, 20, 20, 20, 20, 20, 20, 20, 20, 20, 20, 20, 20, 20, 20, 20, 20, 20, 20, 20, 20; int(0..20)];
             int(0..20)]
$ Visualisation for J_FunctionND
$  0  1  2  3  4  5  6  7  8  9 10 11 12 13 14 15 16 17 18 19 20
$  1  1  9 10 11 12 11 11 13  9 10 11 12 13 20 20 20 20 20 20 20
$  2  9  2 14 15 15 14 16 16  9 20 20 20 20 14 15 16 20 20 20 20
$  3 10 14  3 17 18 14 18 17 20 10 20 20 20 14 20 20 17 18 20 20
$  4 11 15 17  4 15 11 11 17 20 20 11 20 20 20 15 20 17 20 20 20
$  5 12 15 18 15  5 19 18 19 20 20 20 12 20 20 15 20 20 18 19 20
$  6 11 14 14 11 19  6 11 19 20 20 11 20 20 14 20 20 20 20 19 20
$  7 11 16 18 11 18 11  7 16 20 20 11 20 20 20 20 16 20 18 20 20
$  8 13 16 17 17 19 19 16  8 20 20 20 20 13 20 20 16 17 20 19 20
$  9  9  9 20 20 20 20 20 20  9 20 20 20 20 20 20 20 20 20 20 20
$ 10 10 20 10 20 20 20 20 20 20 10 20 20 20 20 20 20 20 20 20 20
$ 11 11 20 20 11 20 11 11 20 20 20 11 20 20 20 20 20 20 20 20 20
$ 12 12 20 20 20 12 20 20 20 20 20 20 12 20 20 20 20 20 20 20 20
$ 13 13 20 20 20 20 20 20 13 20 20 20 20 13 20 20 20 20 20 20 20
$ 14 20 14 14 20 20 14 20 20 20 20 20 20 20 14 20 20 20 20 20 20
$ 15 20 15 20 15 15 20 20 20 20 20 20 20 20 20 15 20 20 20 20 20
$ 16 20 16 20 20 20 20 16 16 20 20 20 20 20 20 20 16 20 20 20 20
$ 17 20 20 17 17 20 20 20 17 20 20 20 20 20 20 20 20 17 20 20 20
$ 18 20 20 18 20 18 20 18 20 20 20 20 20 20 20 20 20 20 18 20 20
$ 19 20 20 20 20 19 19 20 19 20 20 20 20 20 20 20 20 20 20 19 20
$ 20 20 20 20 20 20 20 20 20 20 20 20 20 20 20 20 20 20 20 20 20

letting M_FunctionND be
        [[0, 0, 0, 0, 0, 0, 0, 0, 0, 0, 0, 0, 0, 0, 0, 0, 0, 0, 0, 0, 0; int(0..20)],
         [0, 1, 0, 0, 0, 0, 0, 0, 0, 1, 1, 1, 1, 1, 0, 0, 0, 0, 0, 0, 1; int(0..20)],
         [0, 0, 2, 0, 0, 0, 0, 0, 0, 2, 0, 0, 0, 0, 2, 2, 2, 0, 0, 0, 2; int(0..20)],
         [0, 0, 0, 3, 0, 0, 0, 0, 0, 0, 3, 0, 0, 0, 3, 0, 0, 3, 3, 0, 3; int(0..20)],
         [0, 0, 0, 0, 4, 0, 0, 0, 0, 0, 0, 4, 0, 0, 0, 4, 0, 4, 0, 0, 4; int(0..20)],
         [0, 0, 0, 0, 0, 5, 0, 0, 0, 0, 0, 0, 5, 0, 0, 5, 0, 0, 5, 5, 5; int(0..20)],
         [0, 0, 0, 0, 0, 0, 6, 0, 0, 0, 0, 6, 0, 0, 6, 0, 0, 0, 0, 6, 6; int(0..20)],
         [0, 0, 0, 0, 0, 0, 0, 7, 0, 0, 0, 7, 0, 0, 0, 0, 7, 0, 7, 0, 7; int(0..20)],
         [0, 0, 0, 0, 0, 0, 0, 0, 8, 0, 0, 0, 0, 8, 0, 0, 8, 8, 0, 8, 8; int(0..20)],
         [0, 1, 2, 0, 0, 0, 0, 0, 0, 9, 1, 1, 1, 1, 2, 2, 2, 0, 0, 0, 9; int(0..20)],
         [0, 1, 0, 3, 0, 0, 0, 0, 0, 1, 10, 1, 1, 1, 3, 0, 0, 3, 3, 0, 10; int(0..20)],
         [0, 1, 0, 0, 4, 0, 6, 7, 0, 1, 1, 11, 1, 1, 6, 4, 7, 4, 7, 6, 11; int(0..20)],
         [0, 1, 0, 0, 0, 5, 0, 0, 0, 1, 1, 1, 12, 1, 0, 5, 0, 0, 5, 5, 12; int(0..20)],
         [0, 1, 0, 0, 0, 0, 0, 0, 8, 1, 1, 1, 1, 13, 0, 0, 8, 8, 0, 8, 13; int(0..20)],
         [0, 0, 2, 3, 0, 0, 6, 0, 0, 2, 3, 6, 0, 0, 14, 2, 2, 3, 3, 6, 14; int(0..20)],
         [0, 0, 2, 0, 4, 5, 0, 0, 0, 2, 0, 4, 5, 0, 2, 15, 2, 4, 5, 5, 15; int(0..20)],
         [0, 0, 2, 0, 0, 0, 0, 7, 8, 2, 0, 7, 0, 8, 2, 2, 16, 8, 7, 8, 16; int(0..20)],
         [0, 0, 0, 3, 4, 0, 0, 0, 8, 0, 3, 4, 0, 8, 3, 4, 8, 17, 3, 8, 17; int(0..20)],
         [0, 0, 0, 3, 0, 5, 0, 7, 0, 0, 3, 7, 5, 0, 3, 5, 7, 3, 18, 5, 18; int(0..20)],
         [0, 0, 0, 0, 0, 5, 6, 0, 8, 0, 0, 6, 5, 8, 6, 5, 8, 8, 5, 19, 19; int(0..20)],
         [0, 1, 2, 3, 4, 5, 6, 7, 8, 9, 10, 11, 12, 13, 14, 15, 16, 17, 18, 19, 20; int(0..20)];
             int(0..20)]
$ Visualisation for M_FunctionND
$  0  0  0  0  0  0  0  0  0  0  0  0  0  0  0  0  0  0  0  0  0
$  0  1  0  0  0  0  0  0  0  1  1  1  1  1  0  0  0  0  0  0  1
$  0  0  2  0  0  0  0  0  0  2  0  0  0  0  2  2  2  0  0  0  2
$  0  0  0  3  0  0  0  0  0  0  3  0  0  0  3  0  0  3  3  0  3
$  0  0  0  0  4  0  0  0  0  0  0  4  0  0  0  4  0  4  0  0  4
$  0  0  0  0  0  5  0  0  0  0  0  0  5  0  0  5  0  0  5  5  5
$  0  0  0  0  0  0  6  0  0  0  0  6  0  0  6  0  0  0  0  6  6
$  0  0  0  0  0  0  0  7  0  0  0  7  0  0  0  0  7  0  7  0  7
$  0  0  0  0  0  0  0  0  8  0  0  0  0  8  0  0  8  8  0  8  8
$  0  1  2  0  0  0  0  0  0  9  1  1  1  1  2  2  2  0  0  0  9
$  0  1  0  3  0  0  0  0  0  1 10  1  1  1  3  0  0  3  3  0 10
$  0  1  0  0  4  0  6  7  0  1  1 11  1  1  6  4  7  4  7  6 11
$  0  1  0  0  0  5  0  0  0  1  1  1 12  1  0  5  0  0  5  5 12
$  0  1  0  0  0  0  0  0  8  1  1  1  1 13  0  0  8  8  0  8 13
$  0  0  2  3  0  0  6  0  0  2  3  6  0  0 14  2  2  3  3  6 14
$  0  0  2  0  4  5  0  0  0  2  0  4  5  0  2 15  2  4  5  5 15
$  0  0  2  0  0  0  0  7  8  2  0  7  0  8  2  2 16  8  7  8 16
$  0  0  0  3  4  0  0  0  8  0  3  4  0  8  3  4  8 17  3  8 17
$  0  0  0  3  0  5  0  7  0  0  3  7  5  0  3  5  7  3 18  5 18
$  0  0  0  0  0  5  6  0  8  0  0  6  5  8  6  5  8  8  5 19 19
$  0  1  2  3  4  5  6  7  8  9 10 11 12 13 14 15 16 17 18 19 20

letting R_Function1D be [0, 1, 1, 1, 1, 1, 1, 1, 1, 2, 2, 2, 2, 2, 2, 2, 2, 2, 2, 2, 3; int(0..20)]
